
Gurobi 6.0.4 (win64) logging started 06/17/15 22:57:34

Read LP format model from file E:\Eigene Dateien\Downloads\Michi shit\VRPTWMS-master\VRPTWMS\instances\mip\fuel\N9-C_DV100-C_SV25_F5_7_No_1.lp
Reading time = 0.00 seconds
(null): 514 rows, 251 columns, 2154 nonzeros
Optimize a model with 514 rows, 251 columns and 2154 nonzeros
Model has 810 quadratic constraints
WARNING: Only barrier available for SOCP models
Coefficient statistics:
  Matrix range    [1e+00, 1e+06]
  Objective range [4e+04, 1e+07]
  Bounds range    [1e+00, 1e+06]
  RHS range       [1e+00, 1e+06]
Presolve removed 51 rows and 31 columns
Presolve time: 0.05s
Presolved: 1745 rows, 889 columns, 8639 nonzeros
Variable types: 613 continuous, 276 integer (228 binary)
Found heuristic solution: objective 9.421540e+07
Optimize a model with 1745 rows, 889 columns and 8639 nonzeros
Coefficient statistics:
  Matrix range    [1e+00, 1e+06]
  Objective range [4e+04, 1e+07]
  Bounds range    [1e+00, 1e+06]
  RHS range       [1e+00, 1e+06]

Concurrent LP optimizer: dual simplex and barrier
Showing barrier log only...

Presolve removed 159 rows and 105 columns
Presolved: 1586 rows, 784 columns, 7892 nonzeros

Root barrier log...

Ordering time: 0.03s

Barrier performed 0 iterations in 0.09 seconds
Barrier solve interrupted - model solved by another algorithm


Solved with dual simplex
Solved in 152 iterations and 0.09 seconds
Optimal objective  7.035862505e+06

Root relaxation: objective 7.035863e+06, 152 iterations, 0.03 seconds

    Nodes    |    Current Node    |     Objective Bounds      |     Work
 Expl Unexpl |  Obj  Depth IntInf | Incumbent    BestBd   Gap | It/Node Time

     0     0 7035862.51    0   33 9.4215e+07 7035862.51  92.5%     -    0s
H    0     0                    6.363670e+07 7035862.51  88.9%     -    0s
     0     0 1.1920e+07    0   40 6.3637e+07 1.1920e+07  81.3%     -    0s
H    0     0                    6.346450e+07 1.1920e+07  81.2%     -    0s
H    0     0                    4.305750e+07 1.1920e+07  72.3%     -    0s
     0     0 1.2046e+07    0   37 4.3058e+07 1.2046e+07  72.0%     -    0s
     0     0 1.2078e+07    0   23 4.3058e+07 1.2078e+07  71.9%     -    0s
     0     0 1.2137e+07    0   19 4.3058e+07 1.2137e+07  71.8%     -    0s
     0     0 1.2145e+07    0   25 4.3058e+07 1.2145e+07  71.8%     -    0s
H    0     0                    4.292170e+07 1.2145e+07  71.7%     -    0s
     0     0 1.2145e+07    0   26 4.2922e+07 1.2145e+07  71.7%     -    0s
     0     0 1.2145e+07    0   20 4.2922e+07 1.2145e+07  71.7%     -    0s
     0     0 1.2197e+07    0   30 4.2922e+07 1.2197e+07  71.6%     -    0s
     0     0 1.2197e+07    0   31 4.2922e+07 1.2197e+07  71.6%     -    0s
     0     0 1.2197e+07    0   33 4.2922e+07 1.2197e+07  71.6%     -    0s
     0     0 1.2197e+07    0   31 4.2922e+07 1.2197e+07  71.6%     -    0s
     0     2 1.2197e+07    0   31 4.2922e+07 1.2197e+07  71.6%     -    0s
*  327   227              40    3.378280e+07 1.2784e+07  62.2%  24.7    0s
H  496   276                    3.335670e+07 1.4726e+07  55.9%  24.6    0s
* 4445  1380              43    3.332170e+07 2.2305e+07  33.1%  33.6    4s
  5702  1745 2.3161e+07   29   34 3.3322e+07 2.2419e+07  32.7%  35.4    5s
* 6119  1686              41    3.280460e+07 2.2447e+07  31.6%  36.0    5s
H 6252  1665                    3.276810e+07 2.2447e+07  31.5%  36.2    5s
 11514  1128 2.6800e+07   34   42 3.2768e+07 2.3090e+07  29.5%  43.6   10s

Cutting planes:
  Learned: 1
  Gomory: 4
  Cover: 3
  Implied bound: 5
  Clique: 4
  MIR: 3
  Flow cover: 3
  GUB cover: 3
  Zero half: 2

Explored 14238 nodes (623782 simplex iterations) in 11.94 seconds
Thread count was 4 (of 4 available processors)

Optimal solution found (tolerance 1.00e-04)
Best objective 3.276810000000e+07, best bound 3.276810000000e+07, gap 0.0%
k_c1	1000000.0
k_c2	899998.0
k_c3	980000.0
k_c4	919999.0
k_c5	20000.0
k_c6	70002.0
k_c7	140003.0
k_c8	1000000.0
k_c9	60000.0
k_dN	-0.0
o_1	0.0
o_2	0.0
o_3	0.0
o_4	-0.0
o_5	0.0
o_6	0.0
o_7	1.0
o_8	0.0
o_9	0.0
p_1	0.0
p_2	0.0
p_3	0.0
p_4	1.0
p_5	0.0
p_6	0.0
p_7	1.0
p_8	0.0
p_9	0.0
phi_c1	41276.0
phi_c2	24325.0
phi_c3	16939.0
phi_c4	0.0
phi_c5	2990.0
phi_c6	40354.0
phi_c7	14482.0
phi_c8	34411.0
phi_c9	23415.0
phi_dN	-0.0
pi_c1	0.0
pi_c2	0.0
pi_c3	0.0
pi_c4	50000.0
pi_c5	0.0
pi_c6	0.0
pi_c7	202989.0
pi_c8	0.0
pi_c9	0.0
pi_dN	-0.0
tauD_c1	50000.0
tauD_c2	700000.0
tauD_c3	300000.0
tauD_c4	403300.0
tauD_c5	650000.0
tauD_c6	370375.0
tauD_c7	170000.0
tauD_c8	74099.0
tauD_c9	513675.0
tauD_d0	-0.0
tauD_dN	1000000.0
tauS_c1	884474.0
tauS_c2	819449.0
tauS_c3	859524.0
tauS_c4	313949.0
tauS_c5	0.0
tauS_c6	841699.0
tauS_c7	169999.0
tauS_c8	871899.0
tauS_c9	841900.0
tauS_d0	-0.0
tauS_dN	684026.0
x_c1_c3	1.0
x_c2_dN	1.0
x_c3_c4	1.0
x_c4_c2	1.0
x_c5_dN	1.0
x_c6_c9	1.0
x_c7_c6	1.0
x_c8_c7	1.0
x_c9_c5	1.0
x_d0_c1	1.0
x_d0_c8	1.0
z_c4_dN	1.0
z_c7_c4	1.0
z_d0_c7	1.0
